NAME : tsp30_2.155.tour
COMMENT : Length = 155
COMMENT : Found by LKH [Keld Helsgaun]
TYPE : TOUR
DIMENSION : 30
TOUR_SECTION
1
9
25
7
2
5
30
13
15
28
11
8
20
21
17
23
3
12
16
18
29
19
10
26
4
24
27
22
6
14
-1
EOF
